Solving original (integer) problem with strategy gdp.hull_exact...
--- Job model.gms Start 02/16/26 00:13:02 52.2.0 d8e408be LEX-LEG x86 64bit/Linux
--- Applying:
    /package/gams/52.2/gmsprmun.txt
--- GAMS Parameters defined
    Input /local/scratch/a/sgusev/repos/k_means/data/gams_scip_gdp.hull_exact/no_mode/2026-02-16_00-13-02/original/model.gms
    Output /local/scratch/a/sgusev/repos/k_means/data/gams_scip_gdp.hull_exact/no_mode/2026-02-16_00-13-02/original/output.lst
    ScrDir /local/scratch/a/sgusev/repos/k_means/data/gams_scip_gdp.hull_exact/no_mode/2026-02-16_00-13-02/original/225a/
    SysDir /package/gams/52.2/
    CurDir /local/scratch/a/sgusev/repos/k_means/data/gams_scip_gdp.hull_exact/no_mode/2026-02-16_00-13-02/original/
    LogOption 3
    AppendLog 1
Licensee: David Bernal / SECQUOIA Research Group         G251008+0003Ac-GEN
          Purdue University, Davidson School of Chemical EngineeringDCE4838
          225a/gamslice.dat
          5a82958a-fbca-4a23
          node:66820903 mem:995 cores:48 ipport:38349 v:2                  
          Evaluation license: Not for commercial or production use
          The time-limited license stops working on : Jun 30, 2027
System information: 48 physical cores and 995 Gb physical memory detected
GAMS 52.2.0   Copyright (C) 1987-2025 GAMS Development. All rights reserved
--- Starting compilation
--- model.gms(2699) 2 Mb
--- $echo File /local/scratch/a/sgusev/repos/k_means/data/gams_scip_gdp.hull_exact/no_mode/2026-02-16_00-13-02/original/scip.opt
--- model.gms(3970) 2 Mb
--- Starting execution: elapsed 0:00:00.016
--- model.gms(2709) 3 Mb
--- Generating MINLP model GAMS_MODEL
--- model.gms(2713) 5 Mb
---   819 rows  385 columns  1,973 non-zeroes
---   1,260 nl-code  216 nl-non-zeroes
---   36 discrete-columns
--- Range statistics (absolute non-zero finite values)
--- RHS       [min, max] : [ 1.000E+00, 1.000E+00] - Zero values observed as well
--- Bound     [min, max] : [ 1.000E+00, 9.600E+01] - Zero values observed as well
--- Matrix    [min, max] : [ 1.000E+00, 9.600E+01] - Zero values observed as well
--- model.gms(2713) 3 Mb
--- Executing SCIP (Solvelink=5): elapsed 0:00:00.021

SCIP             52.2.0 d8e408be Dec 8, 2025           LEG x86 64bit/Linux    
SCIP version 9.2.4 (a94f778ac8)
Copyright (c) 2002-2025 Zuse Institute Berlin (ZIB)

External libraries: 
  CPLEX 22.1.2.0       Linear Programming Solver developed by IBM (www.cplex.com)
  CppAD 20180000.0     Algorithmic Differentiation of C++ algorithms developed by B. Bell (github.com/coin-or/CppAD)
  PaPILO 2.4.4         parallel presolve for integer and linear optimization (github.com/scipopt/papilo) (built with TBB) [GitHash: 7c826d50]
  Nauty 2.8.9          Computing Graph Automorphism Groups by Brendan D. McKay (users.cecs.anu.edu.au/~bdm/nauty)
  sassy 1.1            Symmetry preprocessor by Markus Anders (github.com/markusa4/sassy)
  Ipopt 3.14.19        Interior Point Optimizer developed by A. Waechter et.al. (github.com/coin-or/Ipopt)

reading option file /local/scratch/a/sgusev/repos/k_means/data/gams_scip_gdp.hull_exact/no_mode/2026-02-16_00-13-02/original/scip.opt
non-default parameter settings:
limits/time = 300
limits/gap = 1e-06
limits/absgap = 1e-10
lp/threads = 1
misc/printreason = FALSE
numerics/dualfeastol = 1e-06
parallel/maxnthreads = 1
nlpi/ipopt/linear_solver = "ma27"
nlpi/ipopt/linear_system_scaling = "mc19"

original problem has 384 variables (36 bin, 0 int, 348 cont) and 818 constraints

all 1 solutions given by solution candidate storage are infeasible

presolving:
(round 1, fast)       12 del vars, 0 del conss, 0 add conss, 0 chg bounds, 0 chg sides, 0 chg coeffs, 0 upgd conss, 0 impls, 12 clqs
(round 2, fast)       12 del vars, 0 del conss, 0 add conss, 0 chg bounds, 12 chg sides, 0 chg coeffs, 0 upgd conss, 0 impls, 12 clqs
(round 3, exhaustive) 12 del vars, 0 del conss, 0 add conss, 0 chg bounds, 12 chg sides, 0 chg coeffs, 624 upgd conss, 0 impls, 12 clqs
   (0.0s) probing cycle finished: starting next cycle
   (0.0s) symmetry computation started: requiring (bin +, int +, cont +), (fixed: bin -, int -, cont -)
   (0.0s) no symmetry present (symcode time: 0.00)
presolving (4 rounds: 4 fast, 2 medium, 2 exhaustive):
 12 deleted vars, 0 deleted constraints, 0 added constraints, 0 tightened bounds, 0 added holes, 12 changed sides, 0 changed coefficients
 1260 implications, 12 cliques
presolved problem has 372 variables (36 bin, 0 int, 0 impl, 336 cont) and 818 constraints
    612 constraints of type <varbound>
     12 constraints of type <setppc>
    158 constraints of type <linear>
     36 constraints of type <nonlinear>
Presolving Time: 0.02

 time | node  | left  |LP iter|LP it/n|mem/heur|mdpt |vars |cons |rows |cuts |sepa|confs|strbr|  dualbound   | primalbound  |  gap   | compl. 
  0.1s|     1 |     0 |   440 |     - |  9717k |   0 | 732 | 818 |1286 |   0 |  0 |   0 |   0 | 0.000000e+00 |      --      |    Inf | unknown
o 0.1s|     1 |     0 |   614 |     - |feaspump|   0 | 732 | 818 |1286 |   0 |  0 |   0 |   0 | 0.000000e+00 | 1.047628e+01 |    Inf | unknown
  0.1s|     1 |     0 |   813 |     - |    10M |   0 | 732 | 818 |1359 |  73 |  1 |   0 |   0 | 0.000000e+00 | 1.047628e+01 |    Inf | unknown
  0.1s|     1 |     0 |   813 |     - |    10M |   0 | 732 | 818 |1347 |  73 |  1 |   0 |   0 | 0.000000e+00 | 1.047628e+01 |    Inf | unknown
  0.1s|     1 |     0 |   986 |     - |    11M |   0 | 732 | 818 |1432 | 158 |  2 |   0 |   0 | 0.000000e+00 | 1.047628e+01 |    Inf | unknown
  0.2s|     1 |     0 |  1112 |     - |    11M |   0 | 732 | 818 |1502 | 228 |  3 |   0 |   0 | 0.000000e+00 | 1.047628e+01 |    Inf | unknown
  0.2s|     1 |     0 |  1235 |     - |    11M |   0 | 732 | 818 |1573 | 299 |  4 |   0 |   0 | 0.000000e+00 | 1.047628e+01 |    Inf | unknown
  0.2s|     1 |     0 |  1356 |     - |    11M |   0 | 732 | 818 |1642 | 368 |  5 |   0 |   0 | 0.000000e+00 | 1.047628e+01 |    Inf | unknown
  0.3s|     1 |     0 |  1477 |     - |    12M |   0 | 732 | 818 |1703 | 429 |  6 |   0 |   0 | 0.000000e+00 | 1.047628e+01 |    Inf | unknown
  0.3s|     1 |     0 |  1565 |     - |    12M |   0 | 732 | 818 |1757 | 483 |  7 |   0 |   0 | 0.000000e+00 | 1.047628e+01 |    Inf | unknown
  0.3s|     1 |     0 |  1658 |     - |    12M |   0 | 732 | 818 |1806 | 532 |  8 |   0 |   0 | 0.000000e+00 | 1.047628e+01 |    Inf | unknown
  0.4s|     1 |     0 |  1759 |     - |    13M |   0 | 732 | 818 |1852 | 578 |  9 |   0 |   0 | 0.000000e+00 | 1.047628e+01 |    Inf | unknown
  0.4s|     1 |     0 |  1842 |     - |    14M |   0 | 732 | 818 |1889 | 615 | 10 |   0 |   0 | 0.000000e+00 | 1.047628e+01 |    Inf | unknown
  0.5s|     1 |     0 |  1937 |     - |    14M |   0 | 732 | 818 |1930 | 656 | 11 |   0 |   0 | 0.000000e+00 | 1.047628e+01 |    Inf | unknown
  0.6s|     1 |     0 |  2014 |     - |    15M |   0 | 732 | 818 |1510 | 700 | 12 |   0 |   0 | 0.000000e+00 | 1.047628e+01 |    Inf | unknown
 time | node  | left  |LP iter|LP it/n|mem/heur|mdpt |vars |cons |rows |cuts |sepa|confs|strbr|  dualbound   | primalbound  |  gap   | compl. 
  1.9s|     1 |     0 |  5920 |     - |    16M |   0 | 732 | 806 |1510 | 700 | 12 |   0 |   5 | 0.000000e+00 | 1.047628e+01 |    Inf | unknown
  2.0s|     1 |     0 |  5986 |     - |    16M |   0 | 732 | 806 |1552 | 742 | 13 |   0 |   5 | 0.000000e+00 | 1.047628e+01 |    Inf | unknown
  2.0s|     1 |     0 |  6013 |     - |    16M |   0 | 732 | 806 |1568 | 758 | 14 |   0 |   5 | 0.000000e+00 | 1.047628e+01 |    Inf | unknown
  2.0s|     1 |     0 |  6013 |     - |    16M |   0 | 732 | 806 |1568 | 758 | 14 |   0 |  10 | 0.000000e+00 | 1.047628e+01 |    Inf | unknown
  2.1s|     1 |     0 |  6089 |     - |    17M |   0 | 732 | 806 |1604 | 794 | 15 |   0 |  10 | 0.000000e+00 | 1.047628e+01 |    Inf | unknown
  2.1s|     1 |     0 |  6107 |     - |    17M |   0 | 732 | 806 |1617 | 807 | 16 |   0 |  10 | 0.000000e+00 | 1.047628e+01 |    Inf | unknown
  2.1s|     1 |     0 |  6107 |     - |    17M |   0 | 732 | 806 |1617 | 807 | 16 |   0 |  15 | 0.000000e+00 | 1.047628e+01 |    Inf | unknown
  2.2s|     1 |     0 |  6158 |     - |    17M |   0 | 732 | 806 |1406 | 837 | 17 |   0 |  15 | 0.000000e+00 | 1.047628e+01 |    Inf | unknown
  2.2s|     1 |     0 |  6176 |     - |    17M |   0 | 732 | 806 |1415 | 846 | 18 |   0 |  15 | 0.000000e+00 | 1.047628e+01 |    Inf | unknown
  2.2s|     1 |     0 |  6176 |     - |    17M |   0 | 732 | 806 |1415 | 846 | 18 |   0 |  20 | 0.000000e+00 | 1.047628e+01 |    Inf | unknown
  2.2s|     1 |     0 |  6221 |     - |    17M |   0 | 732 | 806 |1445 | 876 | 19 |   0 |  20 | 0.000000e+00 | 1.047628e+01 |    Inf | unknown
  2.2s|     1 |     0 |  6252 |     - |    17M |   0 | 732 | 806 |1453 | 884 | 20 |   0 |  20 | 0.000000e+00 | 1.047628e+01 |    Inf | unknown
  2.2s|     1 |     0 |  6252 |     - |    17M |   0 | 732 | 806 |1453 | 884 | 20 |   0 |  25 | 0.000000e+00 | 1.047628e+01 |    Inf | unknown
  2.3s|     1 |     0 |  6306 |     - |    17M |   0 | 732 | 806 |1483 | 914 | 21 |   0 |  25 | 0.000000e+00 | 1.047628e+01 |    Inf | unknown
  2.3s|     1 |     0 |  6335 |     - |    17M |   0 | 732 | 806 |1497 | 928 | 22 |   0 |  25 | 0.000000e+00 | 1.047628e+01 |    Inf | unknown
 time | node  | left  |LP iter|LP it/n|mem/heur|mdpt |vars |cons |rows |cuts |sepa|confs|strbr|  dualbound   | primalbound  |  gap   | compl. 
  2.3s|     1 |     2 |  6335 |     - |    17M |   0 | 732 | 806 |1497 | 928 | 22 |   0 |  25 | 0.000000e+00 | 1.047628e+01 |    Inf | unknown
d 2.7s|    14 |    15 | 10944 | 663.3 |fracdivi|   5 | 732 | 806 |1596 |2846 |  8 |   0 |  92 | 0.000000e+00 | 9.041915e+00 |    Inf | unknown
d 3.7s|    53 |    54 | 24195 | 420.7 |nlpdivin|  11 | 732 | 806 |1485 |   0 |  2 |   0 | 134 | 0.000000e+00 | 8.905188e+00 |    Inf | unknown
d 4.1s|    71 |    72 | 31813 | 421.3 |nlpdivin|  11 | 732 | 806 |1633 |   0 |  7 |   0 | 139 | 0.000000e+00 | 8.124936e+00 |    Inf | unknown
  4.8s|   100 |   101 | 43864 | 419.6 |    25M |  12 | 732 | 806 |1646 |  14k|  8 |   3 | 141 | 0.000000e+00 | 8.124936e+00 |    Inf | unknown
  6.7s|   200 |   201 | 82742 | 404.1 |    34M |  13 | 732 | 806 |1707 |  28k|  8 |  11 | 143 | 0.000000e+00 | 8.124936e+00 |    Inf | unknown
  8.5s|   300 |   301 |117206 | 384.2 |    45M |  14 | 732 | 806 |1791 |  40k|  8 |  18 | 144 | 7.643289e-02 | 8.124936e+00 |  Large | unknown
  9.9s|   400 |   401 |148978 | 367.6 |    51M |  15 | 732 | 806 |1617 |  53k|  2 |  25 | 150 | 1.359042e-01 | 8.124936e+00 |5878.43%| unknown
 11.4s|   500 |   499 |178478 | 353.0 |    59M |  15 | 732 | 806 |1723 |  65k|  8 |  36 | 154 | 5.535705e-01 | 8.124936e+00 |1367.73%| unknown
L12.3s|   571 |   556 |197537 | 342.5 |    gins|  15 | 732 | 806 |1812 |  74k|  5 |  42 | 156 | 9.167591e-01 | 7.166891e+00 | 681.76%|  16.45%
 12.7s|   600 |   579 |204127 | 336.9 |    66M |  16 | 732 | 806 |1529 |  77k|  2 |  45 | 160 | 9.167811e-01 | 7.166891e+00 | 681.75%|  16.88%
 14.0s|   700 |   667 |228255 | 323.2 |    71M |  16 | 732 | 806 |1820 |  87k|  8 |  58 | 163 | 9.359497e-01 | 7.166891e+00 | 665.73%|  18.05%
 15.4s|   800 |   749 |257657 | 319.6 |    78M |  16 | 732 | 806 |1823 |  99k|  7 |  75 | 164 | 1.326550e+00 | 7.166891e+00 | 440.27%|  19.80%
 16.6s|   900 |   825 |279724 | 308.6 |    82M |  18 | 732 | 806 |1712 | 109k|  2 |  85 | 166 | 1.326550e+00 | 7.166891e+00 | 440.27%|  21.15%
L16.7s|   911 |   822 |280522 | 305.7 |    alns|  20 | 732 | 806 |1854 | 110k|  2 |  85 | 167 | 1.326550e+00 | 7.017572e+00 | 429.01%|  21.29%
 time | node  | left  |LP iter|LP it/n|mem/heur|mdpt |vars |cons |rows |cuts |sepa|confs|strbr|  dualbound   | primalbound  |  gap   | compl. 
 17.4s|  1000 |   855 |294298 | 292.3 |    83M |  21 | 732 | 806 |1762 | 117k|  5 |  90 | 169 | 1.629720e+00 | 7.017572e+00 | 330.60%|  22.41%
 18.5s|  1100 |   917 |316557 | 285.9 |    87M |  21 | 732 | 806 |1851 | 127k|  8 | 101 | 174 | 1.629720e+00 | 7.017572e+00 | 330.60%|  22.90%
 19.5s|  1200 |   963 |333778 | 276.4 |    90M |  21 | 732 | 806 |1645 | 136k|  2 | 113 | 176 | 1.629722e+00 | 7.017572e+00 | 330.60%|  24.01%
 20.3s|  1300 |   995 |349183 | 267.0 |    93M |  21 | 732 | 806 |1825 | 144k|  5 | 122 | 178 | 1.675394e+00 | 7.017572e+00 | 318.86%|  25.16%
 21.1s|  1400 |  1025 |363480 | 258.2 |    96M |  21 | 732 | 806 |1751 | 151k|  6 | 131 | 183 | 1.683851e+00 | 7.017572e+00 | 316.76%|  26.05%
*21.2s|  1421 |  1013 |365681 | 255.9 |    LP  |  21 | 732 | 806 |1963 | 153k|  8 | 132 | 183 | 1.683851e+00 | 6.913788e+00 | 310.59%|  26.15%
 21.7s|  1500 |  1020 |372329 | 246.8 |    96M |  21 | 732 | 806 |1792 | 156k|  0 | 137 | 184 | 1.683851e+00 | 6.913788e+00 | 310.59%|  26.70%
 22.3s|  1600 |  1040 |383640 | 238.5 |    98M |  21 | 732 | 806 |1848 | 163k|  6 | 141 | 185 | 1.748801e+00 | 6.913788e+00 | 295.34%|  27.39%
 23.0s|  1700 |  1058 |395219 | 231.3 |   100M |  21 | 732 | 806 |1618 | 169k|  2 | 146 | 187 | 1.881051e+00 | 6.913788e+00 | 267.55%|  28.46%
 23.8s|  1800 |  1076 |409412 | 226.3 |   102M |  21 | 732 | 806 |1755 | 176k|  0 | 156 | 187 | 2.173319e+00 | 6.913788e+00 | 218.12%|  30.10%
 24.4s|  1900 |  1086 |420935 | 220.4 |   104M |  21 | 732 | 806 |1743 | 182k|  0 | 161 | 187 | 2.305883e+00 | 6.913788e+00 | 199.83%|  31.07%
 25.3s|  2000 |  1104 |436089 | 217.0 |   104M |  21 | 732 | 806 |1836 | 189k|  4 | 166 | 188 | 2.305896e+00 | 6.913788e+00 | 199.83%|  32.04%
 26.0s|  2100 |  1124 |447811 | 212.2 |   106M |  21 | 732 | 806 |1865 | 195k|  6 | 170 | 191 | 2.315537e+00 | 6.913788e+00 | 198.58%|  32.84%
*26.4s|  2169 |  1123 |452923 | 207.8 |    LP  |  22 | 732 | 806 |2094 | 198k|  8 | 174 | 196 | 2.315537e+00 | 6.900805e+00 | 198.02%|  33.16%
 26.6s|  2200 |  1122 |456000 | 206.3 |   107M |  22 | 732 | 806 |1766 | 200k|  0 | 175 | 196 | 2.356438e+00 | 6.900805e+00 | 192.85%|  33.68%
 time | node  | left  |LP iter|LP it/n|mem/heur|mdpt |vars |cons |rows |cuts |sepa|confs|strbr|  dualbound   | primalbound  |  gap   | compl. 
 27.3s|  2300 |  1134 |467991 | 202.6 |   108M |  22 | 732 | 806 |1776 | 206k|  7 | 180 | 200 | 2.458862e+00 | 6.900805e+00 | 180.65%|  34.36%
 28.0s|  2400 |  1160 |481947 | 199.9 |   109M |  22 | 732 | 806 |1720 | 213k|  2 | 182 | 201 | 2.458903e+00 | 6.900805e+00 | 180.65%|  34.94%
 28.8s|  2500 |  1190 |497075 | 198.0 |   111M |  22 | 732 | 806 |1686 | 221k|  7 | 184 | 202 | 2.458941e+00 | 6.900805e+00 | 180.64%|  35.08%
 29.5s|  2600 |  1212 |508400 | 194.7 |   112M |  22 | 732 | 806 |1731 | 227k|  0 | 188 | 204 | 2.524916e+00 | 6.900805e+00 | 173.31%|  35.72%
 30.2s|  2700 |  1224 |520386 | 191.9 |   114M |  22 | 732 | 806 |1848 | 233k|  6 | 193 | 209 | 2.654662e+00 | 6.900805e+00 | 159.95%|  36.38%
 30.9s|  2800 |  1234 |532903 | 189.6 |   115M |  22 | 732 | 806 |1813 | 240k|  6 | 201 | 213 | 2.656127e+00 | 6.900805e+00 | 159.81%|  37.22%
 31.6s|  2900 |  1248 |545579 | 187.4 |   116M |  22 | 732 | 806 |1675 | 246k|  0 | 207 | 215 | 2.677570e+00 | 6.900805e+00 | 157.73%|  37.92%
 32.2s|  3000 |  1256 |555680 | 184.5 |   119M |  22 | 732 | 806 |1709 | 251k|  0 | 210 | 222 | 2.748993e+00 | 6.900805e+00 | 151.03%|  38.88%
 32.9s|  3100 |  1278 |567455 | 182.4 |   120M |  22 | 732 | 806 |1741 | 257k|  2 | 211 | 227 | 2.789305e+00 | 6.900805e+00 | 147.40%|  39.42%
 33.5s|  3200 |  1280 |577731 | 179.9 |   121M |  22 | 732 | 806 |1756 | 262k|  2 | 215 | 228 | 2.871763e+00 | 6.900805e+00 | 140.30%|  40.40%
 34.3s|  3300 |  1294 |591717 | 178.7 |   122M |  22 | 732 | 806 |1772 | 269k|  0 | 222 | 231 | 2.922948e+00 | 6.900805e+00 | 136.09%|  41.09%
 34.9s|  3400 |  1300 |602182 | 176.5 |   123M |  22 | 732 | 806 |1801 | 274k|  7 | 226 | 233 | 3.009012e+00 | 6.900805e+00 | 129.34%|  41.74%
 35.5s|  3500 |  1298 |613807 | 174.8 |   124M |  22 | 732 | 806 |1765 | 280k|  7 | 230 | 236 | 3.022907e+00 | 6.900805e+00 | 128.28%|  42.59%
 36.1s|  3600 |  1296 |623170 | 172.5 |   125M |  22 | 732 | 806 |1742 | 285k|  0 | 239 | 246 | 3.103937e+00 | 6.900805e+00 | 122.32%|  43.46%
 36.8s|  3700 |  1306 |634867 | 171.0 |   128M |  22 | 732 | 806 |1619 | 291k|  1 | 246 | 248 | 3.137717e+00 | 6.900805e+00 | 119.93%|  44.25%
 time | node  | left  |LP iter|LP it/n|mem/heur|mdpt |vars |cons |rows |cuts |sepa|confs|strbr|  dualbound   | primalbound  |  gap   | compl. 
 37.6s|  3800 |  1320 |648919 | 170.2 |   129M |  22 | 732 | 806 |1818 | 298k|  0 | 254 | 260 | 3.173065e+00 | 6.900805e+00 | 117.48%|  44.90%
 38.1s|  3900 |  1304 |657036 | 167.9 |   130M |  22 | 732 | 806 |1666 | 302k|  0 | 260 | 265 | 3.173065e+00 | 6.900805e+00 | 117.48%|  45.47%
 38.7s|  4000 |  1304 |666698 | 166.1 |   130M |  22 | 732 | 806 |1725 | 307k|  2 | 262 | 267 | 3.188931e+00 | 6.900805e+00 | 116.40%|  46.26%
 39.3s|  4100 |  1308 |677620 | 164.7 |   132M |  22 | 732 | 806 |1812 | 312k|  5 | 262 | 270 | 3.291018e+00 | 6.900805e+00 | 109.69%|  47.05%
 39.9s|  4200 |  1302 |687289 | 163.1 |   133M |  22 | 732 | 806 |1726 | 317k|  0 | 268 | 271 | 3.401137e+00 | 6.900805e+00 | 102.90%|  48.05%
 40.6s|  4300 |  1316 |700097 | 162.3 |   135M |  22 | 732 | 806 |1658 | 323k|  2 | 280 | 273 | 3.416593e+00 | 6.900805e+00 | 101.98%|  48.80%
 41.2s|  4400 |  1316 |709900 | 160.8 |   137M |  22 | 732 | 806 |1838 | 327k|  5 | 286 | 274 | 3.520980e+00 | 6.900805e+00 |  95.99%|  49.76%
 41.8s|  4500 |  1312 |720628 | 159.7 |   137M |  22 | 732 | 806 |1715 | 332k|  1 | 293 | 279 | 3.520998e+00 | 6.900805e+00 |  95.99%|  50.69%
 42.4s|  4600 |  1310 |731878 | 158.6 |   139M |  22 | 732 | 806 |1793 | 338k|  1 | 299 | 282 | 3.526435e+00 | 6.900805e+00 |  95.69%|  51.70%
 42.9s|  4700 |  1306 |739801 | 156.9 |   139M |  22 | 732 | 806 |1726 | 342k|  2 | 303 | 285 | 3.575319e+00 | 6.900805e+00 |  93.01%|  52.45%
 43.5s|  4800 |  1292 |748966 | 155.6 |   139M |  22 | 732 | 806 |1699 | 347k|  0 | 310 | 297 | 3.686638e+00 | 6.900805e+00 |  87.18%|  53.39%
 44.0s|  4900 |  1286 |757900 | 154.2 |   140M |  22 | 732 | 806 |1732 | 351k|  0 | 316 | 300 | 3.686703e+00 | 6.900805e+00 |  87.18%|  54.01%
 44.5s|  5000 |  1266 |765807 | 152.7 |   141M |  22 | 732 | 806 |1658 | 355k|  0 | 320 | 306 | 3.716009e+00 | 6.900805e+00 |  85.70%|  55.16%
 45.0s|  5100 |  1250 |773797 | 151.3 |   142M |  22 | 732 | 806 |1807 | 359k|  7 | 323 | 309 | 3.774879e+00 | 6.900805e+00 |  82.81%|  55.95%
 45.5s|  5200 |  1240 |781294 | 149.8 |   142M |  22 | 732 | 806 |1662 | 363k|  2 | 326 | 313 | 3.776175e+00 | 6.900805e+00 |  82.75%|  56.54%
 time | node  | left  |LP iter|LP it/n|mem/heur|mdpt |vars |cons |rows |cuts |sepa|confs|strbr|  dualbound   | primalbound  |  gap   | compl. 
 46.0s|  5300 |  1224 |787813 | 148.2 |   142M |  22 | 732 | 806 |1845 | 366k|  6 | 331 | 315 | 3.813047e+00 | 6.900805e+00 |  80.98%|  57.08%
 46.5s|  5400 |  1216 |797487 | 147.3 |   145M |  22 | 732 | 806 |1803 | 371k|  6 | 337 | 315 | 3.850271e+00 | 6.900805e+00 |  79.23%|  58.17%
 47.1s|  5500 |  1192 |806074 | 146.2 |   145M |  22 | 732 | 806 |1796 | 375k|  0 | 347 | 321 | 3.857283e+00 | 6.900805e+00 |  78.90%|  59.38%
 47.6s|  5600 |  1172 |815072 | 145.2 |   145M |  22 | 732 | 806 |1814 | 379k|  3 | 355 | 326 | 3.922095e+00 | 6.900805e+00 |  75.95%|  60.27%
 48.1s|  5700 |  1152 |824778 | 144.3 |   145M |  22 | 732 | 806 |1789 | 383k|  3 | 360 | 330 | 3.965695e+00 | 6.900805e+00 |  74.01%|  60.96%
 48.6s|  5800 |  1124 |833171 | 143.3 |   146M |  22 | 732 | 806 |2085 | 387k|  0 | 368 | 332 | 4.022467e+00 | 6.900805e+00 |  71.56%|  61.96%
 49.2s|  5900 |  1098 |840863 | 142.1 |   146M |  22 | 732 | 806 |1679 | 391k|  0 | 373 | 332 | 4.049820e+00 | 6.900805e+00 |  70.40%|  62.81%
 49.7s|  6000 |  1084 |850228 | 141.3 |   146M |  22 | 732 | 806 |1771 | 395k|  0 | 377 | 337 | 4.090046e+00 | 6.900805e+00 |  68.72%|  63.60%
 50.2s|  6100 |  1058 |857513 | 140.2 |   146M |  22 | 732 | 806 |1752 | 398k|  2 | 385 | 341 | 4.134001e+00 | 6.900805e+00 |  66.93%|  64.44%
 50.6s|  6200 |  1016 |863302 | 138.9 |   146M |  22 | 732 | 806 |1677 | 401k|  0 | 388 | 345 | 4.139767e+00 | 6.900805e+00 |  66.70%|  65.45%
 51.1s|  6300 |   992 |871941 | 138.1 |   146M |  22 | 732 | 806 |1751 | 405k|  2 | 394 | 349 | 4.160064e+00 | 6.900805e+00 |  65.88%|  67.04%
 51.7s|  6400 |   962 |879280 | 137.0 |   146M |  22 | 732 | 806 |1602 | 408k|  0 | 397 | 353 | 4.175161e+00 | 6.900805e+00 |  65.28%|  67.94%
 52.2s|  6500 |   940 |888220 | 136.3 |   148M |  22 | 732 | 806 |1764 | 412k|  2 | 398 | 354 | 4.244963e+00 | 6.900805e+00 |  62.56%|  68.89%
 52.7s|  6600 |   924 |897183 | 135.6 |   148M |  22 | 732 | 806 |1639 | 416k|  2 | 400 | 358 | 4.248211e+00 | 6.900805e+00 |  62.44%|  69.81%
 53.2s|  6700 |   896 |905023 | 134.8 |   148M |  22 | 732 | 806 |1699 | 420k|  2 | 408 | 364 | 4.333193e+00 | 6.900805e+00 |  59.25%|  70.71%
 time | node  | left  |LP iter|LP it/n|mem/heur|mdpt |vars |cons |rows |cuts |sepa|confs|strbr|  dualbound   | primalbound  |  gap   | compl. 
 53.7s|  6800 |   872 |914659 | 134.2 |   148M |  22 | 732 | 806 |1744 | 424k|  0 | 409 | 365 | 4.338915e+00 | 6.900805e+00 |  59.04%|  71.59%
 54.3s|  6900 |   848 |925134 | 133.8 |   150M |  22 | 732 | 806 |1662 | 428k|  0 | 415 | 371 | 4.358709e+00 | 6.900805e+00 |  58.32%|  72.71%
 54.9s|  7000 |   828 |935066 | 133.3 |   150M |  22 | 732 | 806 |1680 | 432k|  1 | 419 | 378 | 4.367262e+00 | 6.900805e+00 |  58.01%|  73.58%
 55.4s|  7100 |   802 |944052 | 132.7 |   150M |  22 | 732 | 806 |1771 | 436k|  0 | 425 | 382 | 4.453261e+00 | 6.900805e+00 |  54.96%|  74.73%
 55.9s|  7200 |   774 |951769 | 131.9 |   150M |  22 | 732 | 806 |1746 | 439k|  0 | 431 | 385 | 4.460026e+00 | 6.900805e+00 |  54.73%|  75.58%
 56.5s|  7300 |   758 |961946 | 131.5 |   150M |  22 | 732 | 806 |1740 | 444k|  0 | 433 | 389 | 4.471288e+00 | 6.900805e+00 |  54.34%|  76.30%
 57.0s|  7400 |   740 |971074 | 130.9 |   150M |  22 | 732 | 806 |1745 | 447k|  0 | 439 | 391 | 4.546112e+00 | 6.900805e+00 |  51.80%|  77.16%
 57.5s|  7500 |   708 |977813 | 130.1 |   150M |  22 | 732 | 806 |1660 | 450k|  1 | 448 | 394 | 4.665722e+00 | 6.900805e+00 |  47.90%|  78.04%
 57.9s|  7600 |   674 |984782 | 129.3 |   151M |  22 | 732 | 806 |1812 | 453k|  9 | 451 | 395 | 4.669649e+00 | 6.900805e+00 |  47.78%|  78.94%
 58.4s|  7700 |   650 |993996 | 128.8 |   152M |  22 | 732 | 806 |1756 | 457k|  1 | 452 | 397 | 4.689103e+00 | 6.900805e+00 |  47.17%|  79.98%
 59.0s|  7800 |   636 |  1005k| 128.6 |   154M |  22 | 732 | 806 |1643 | 461k|  0 | 458 | 398 | 4.692891e+00 | 6.900805e+00 |  47.05%|  80.92%
 59.5s|  7900 |   596 |  1012k| 127.9 |   154M |  22 | 732 | 806 |2232 | 464k|  0 | 464 | 401 | 4.777124e+00 | 6.900805e+00 |  44.46%|  82.09%
 60.1s|  8000 |   578 |  1023k| 127.6 |   154M |  22 | 732 | 806 |1750 | 468k|  1 | 471 | 410 | 4.798403e+00 | 6.900805e+00 |  43.81%|  83.12%
 60.5s|  8100 |   534 |  1029k| 126.8 |   154M |  22 | 732 | 806 |1672 | 471k|  2 | 479 | 415 | 4.833109e+00 | 6.900805e+00 |  42.78%|  84.10%
 61.0s|  8200 |   496 |  1036k| 126.1 |   156M |  22 | 732 | 806 |2385 | 474k|  2 | 488 | 418 | 4.874511e+00 | 6.900805e+00 |  41.57%|  85.28%
 time | node  | left  |LP iter|LP it/n|mem/heur|mdpt |vars |cons |rows |cuts |sepa|confs|strbr|  dualbound   | primalbound  |  gap   | compl. 
 61.5s|  8300 |   460 |  1044k| 125.6 |   157M |  22 | 732 | 806 |2103 | 477k|  0 | 492 | 422 | 5.001912e+00 | 6.900805e+00 |  37.96%|  86.26%
 62.0s|  8400 |   426 |  1052k| 125.0 |   157M |  22 | 732 | 806 |1713 | 480k|  0 | 497 | 428 | 5.152749e+00 | 6.900805e+00 |  33.92%|  87.72%
 62.5s|  8500 |   400 |  1060k| 124.5 |   158M |  22 | 732 | 806 |1767 | 483k|  0 | 500 | 429 | 5.195606e+00 | 6.900805e+00 |  32.82%|  88.52%
 62.9s|  8600 |   364 |  1067k| 123.8 |   158M |  22 | 732 | 806 |1746 | 485k|  0 | 502 | 432 | 5.195610e+00 | 6.900805e+00 |  32.82%|  89.36%
 63.3s|  8700 |   332 |  1074k| 123.2 |   158M |  22 | 732 | 806 |1767 | 488k|  2 | 502 | 434 | 5.267662e+00 | 6.900805e+00 |  31.00%|  90.61%
 63.9s|  8800 |   304 |  1085k| 123.1 |   159M |  22 | 732 | 806 |1774 | 492k|  2 | 510 | 440 | 5.410665e+00 | 6.900805e+00 |  27.54%|  91.56%
 64.4s|  8900 |   252 |  1091k| 122.4 |   160M |  22 | 732 | 806 |1687 | 494k|  3 | 513 | 443 | 5.483926e+00 | 6.900805e+00 |  25.84%|  92.90%
 64.8s|  9000 |   200 |  1099k| 121.9 |   161M |  22 | 732 | 806 |1735 | 496k|  1 | 516 | 445 | 5.606452e+00 | 6.900805e+00 |  23.09%|  94.25%
 65.3s|  9100 |   154 |  1106k| 121.4 |   161M |  22 | 732 | 806 |2417 | 499k|  0 | 516 | 446 | 5.715555e+00 | 6.900805e+00 |  20.74%|  95.30%
 65.7s|  9200 |   108 |  1113k| 120.8 |   161M |  22 | 732 | 806 |1705 | 501k|  2 | 522 | 450 | 5.888703e+00 | 6.900805e+00 |  17.19%|  96.65%
 66.2s|  9300 |    60 |  1120k| 120.2 |   162M |  22 | 732 | 806 |1677 | 503k|  2 | 525 | 454 | 6.022677e+00 | 6.900805e+00 |  14.58%|  98.00%
 66.7s|  9400 |    22 |  1128k| 119.8 |   162M |  22 | 732 | 806 |1682 | 506k|  1 | 534 | 463 | 6.293037e+00 | 6.900805e+00 |   9.66%|  99.45%

SCIP Status        : problem is solved [optimal solution found]
Solving Time (sec) : 66.90
Solving Nodes      : 9446
Primal Bound       : +6.90080549169885e+00 (10 solutions)
Dual Bound         : +6.90080549169885e+00
Gap                : 0.00 %


--- Reading solution for model GAMS_MODEL
***
*** Solver did not provide marginals for model GAMS_MODEL
***
--- Executing after solve: elapsed 0:01:06.998
--- model.gms(2716) 3 Mb
--- model.gms(3970) 5 Mb
--- Putfile results /local/scratch/a/sgusev/repos/k_means/data/gams_scip_gdp.hull_exact/no_mode/2026-02-16_00-13-02/original/results.dat
--- Putfile statresults /local/scratch/a/sgusev/repos/k_means/data/gams_scip_gdp.hull_exact/no_mode/2026-02-16_00-13-02/original/resultsstat.dat
*** Status: Normal completion
--- Job model.gms Stop 02/16/26 00:14:09 elapsed 0:01:07.001
Original problem solved. Time taken: 67.6381413936615 seconds
Original objective value: 6.900805491698851
